Name:		mgval_0.50_4C
Optimal value:	-1
#Vehicles:	5
Capacity:	130
Depot Node:	1
#Nodes:		41
#Edges:		21
#Arcs:		82
#Required N:	32
#Required E:	10
#Required A:	41

ReN.	DEMAND	S. COST
N2	3	3
N3	7	7
N4	13	13
N6	13	13
N7	8	8
N10	7	7
N11	4	4
N12	9	9
N13	15	15
N14	13	13
N15	6	6
N16	22	22
N17	7	7
N18	14	14
N19	11	11
N20	10	10
N21	9	9
N22	12	12
N23	8	8
N24	10	10
N26	17	17
N29	15	15
N30	6	6
N31	7	7
N32	6	6
N33	5	5
N35	6	6
N36	13	13
N37	2	2
N38	6	6
N39	5	5
N40	4	4

ReE.	FROM N.	TO N.	T. COST	DEMAND	S. COST
E12	27	32	3	8	8
E13	27	28	7	13	13
E14	35	39	10	14	14
E15	37	41	5	9	9
E16	2	8	10	20	20
E17	38	39	9	10	10
E18	30	31	12	19	19
E19	25	31	7	11	11
E20	21	27	1	3	3
E21	5	11	4	8	8

EDGE	FROM N.	TO N.	T. COST
NrE1	26	27	7
NrE2	22	28	5
NrE3	20	27	5
NrE4	18	22	6
NrE5	4	5	1
NrE6	23	24	3
NrE7	21	22	4
NrE8	2	3	1
NrE9	40	41	4
NrE10	16	17	9
NrE11	17	18	4

ReA.	FROM N.	TO N.	T. COST	DEMAND	S. COST
A42	34	35	2	4	4
A43	26	25	6	5	5
A44	24	30	8	6	6
A45	39	40	2	3	3
A46	27	33	5	4	4
A47	20	21	5	5	5
A48	11	10	4	4	4
A49	8	9	2	3	3
A50	9	14	5	10	10
A51	9	10	3	3	3
A52	16	15	3	6	6
A53	23	29	5	7	7
A54	32	31	5	5	5
A55	1	7	5	7	7
A56	11	16	6	6	6
A57	35	31	4	4	4
A58	33	37	2	2	2
A59	34	29	14	9	9
A60	25	15	9	19	19
A61	17	20	2	2	2
A62	25	24	4	4	4
A63	36	39	3	4	4
A64	1	2	1	1	1
A65	13	23	7	7	7
A66	9	3	1	1	1
A67	34	38	7	6	6
A68	36	40	4	7	7
A69	21	20	5	5	5
A70	14	13	8	8	8
A71	30	24	8	6	6
A72	17	11	2	4	4
A73	6	12	3	4	4
A74	10	4	3	4	4
A75	19	20	3	2	2
A76	23	13	7	7	7
A77	7	8	2	3	3
A78	25	26	6	4	4
A79	20	19	3	2	2
A80	32	26	7	7	7
A81	37	36	8	12	12
A82	7	13	7	7	7

ARC	FROM N.	TO N.	T. COST
NrA1	11	12	5
NrA2	10	11	4
NrA3	15	14	3
NrA4	12	6	3
NrA5	31	32	5
NrA6	19	26	8
NrA7	15	10	1
NrA8	29	23	5
NrA9	38	34	7
NrA10	4	10	3
NrA11	35	36	8
NrA12	14	23	3
NrA13	24	25	4
NrA14	30	29	3
NrA15	2	1	1
NrA16	16	11	6
NrA17	3	4	7
NrA18	36	35	8
NrA19	13	14	8
NrA20	12	11	5
NrA21	31	35	4
NrA22	37	33	2
NrA23	19	16	1
NrA24	7	1	5
NrA25	24	14	4
NrA26	29	34	14
NrA27	16	19	1
NrA28	10	15	1
NrA29	39	36	3
NrA30	23	14	3
NrA31	13	7	7
NrA32	36	32	10
NrA33	14	24	4
NrA34	32	36	10
NrA35	33	27	5
NrA36	6	5	6
NrA37	20	17	2
NrA38	4	3	7
NrA39	14	15	3
NrA40	26	32	7
NrA41	10	9	3
